(set-info :smt-lib-version 2.6)
(set-logic ALL)
(set-info :source |
Generated on: 2026-06-22
Generator: ppTransSmt github.com/CLEARSY/pptranspog
Application: Discharging a proof obligation generated by aTelierB from an anonymized B machine
Target solver: CVC5
Time limit: 1200.0
|)
(set-info :license "www.gnu.org/licenses/gpl-3.0.en.html")
(set-info :category "industrial")
(set-info :status unknown)

; Prelude
(declare-sort P 1)
(declare-fun mem0 (Int (P Int)) Bool)
(declare-sort C 2)
(define-fun MinInt () Int (- 2147483648))
(define-fun MaxInt () Int 2147483647)
; Global declarations
(declare-fun g_s0_0 () (P Int))
(declare-fun g_s10_10 () Int)
(declare-fun g_s11_11 () Int)
(declare-fun g_s12_12 () Int)
(declare-fun g_s13_13 () Int)
(declare-fun g_s14_14 () Int)
(declare-fun g_s15_15 () Int)
(declare-fun g_s16_16 () Int)
(declare-fun g_s17_17 () Int)
(declare-fun g_s18_18 () Int)
(declare-fun g_s19_19 () Int)
(declare-fun g_s1_1 () Int)
(declare-fun g_s20_20 () (P (C Int Int)))
(declare-fun g_s2_2 () Int)
(declare-fun g_s3_3 () Int)
(declare-fun g_s4_4 () Int)
(declare-fun g_s5_5 () Int)
(declare-fun g_s6_6 () Int)
(declare-fun g_s7_7 () Int)
(declare-fun g_s8_8 () Int)
(declare-fun g_s9_9 () Int)
(declare-fun mem2 ( Int Int (P (C Int Int))) Bool)
; Defines
(define-fun |def_lprp_0| () Bool (and  (not (forall ( (x_3 Int) ) (= (mem0 x_3 g_s0_0) false))) (and  (forall ( (x_6 Int) ) (=> (mem0 x_6 g_s0_0) true)) (exists ( (x_4 Int) (x_5 (P (C Int Int))) ) (and (and (exists ( (x_7 (P (C Int Int))) ) (and (forall ( (x_8 Int) (x_9 Int) ) (= (mem2 x_9 x_8 x_7) (mem2 x_9 x_8 x_5))) (forall ( (x_10 Int) (x_11 Int) (x_12 Int) ) (=> (and  (mem2 x_10 x_11 x_7) (mem2 x_10 x_12 x_7)) (= x_11 x_12))) (forall ( (x_13 Int) ) (= (and (>= x_13 1) (<= x_13 x_4)) (exists ( (x_14 Int) ) (mem2 x_13 x_14 x_7)))) (forall ( (x_15 Int) ) (=> (exists ( (x_16 Int) ) (mem2 x_16 x_15 x_7)) (mem0 x_15 g_s0_0))))) (forall ( (x_17 Int) ) (=> (mem0 x_17 g_s0_0) (exists ( (x_18 Int) ) (mem2 x_18 x_17 x_5))))) (forall ( (x_19 Int) (x_20 Int) (x_21 Int) ) (=> (and  (mem2 x_20 x_19 x_5) (mem2 x_21 x_19 x_5)) (= x_20 x_21))))))))
(define-fun |def_lprp_1| () Bool (<= 0 g_s1_1))
(define-fun |def_lprp_2| () Bool (mem0 g_s2_2 g_s0_0))
(define-fun |def_lprp_3| () Bool (mem0 g_s3_3 g_s0_0))
(define-fun |def_lprp_4| () Bool (not (= g_s3_3 g_s2_2)))
(define-fun |def_lprp_5| () Bool (<= 0 g_s4_4))
(define-fun |def_lprp_6| () Bool (<= 0 g_s5_5))
(define-fun |def_lprp_7| () Bool (<= 0 g_s6_6))
(define-fun |def_lprp_8| () Bool (<= 0 g_s7_7))
(define-fun |def_lprp_9| () Bool (<= 0 g_s8_8))
(define-fun |def_lprp_10| () Bool (<= 0 g_s9_9))
(define-fun |def_lprp_11| () Bool (<= 0 g_s10_10))
(define-fun |def_lprp_12| () Bool (<= 0 g_s11_11))
(define-fun |def_lprp_13| () Bool (<= 0 g_s12_12))
(define-fun |def_lprp_14| () Bool (<= 0 g_s13_13))
(define-fun |def_lprp_15| () Bool (<= 0 g_s14_14))
(define-fun |def_lprp_16| () Bool (<= 0 g_s15_15))
(define-fun |def_lprp_17| () Bool (<= 0 g_s16_16))
(define-fun |def_lprp_18| () Bool (<= 0 g_s17_17))
(define-fun |def_lprp_19| () Bool (<= 0 g_s18_18))
(define-fun |def_lprp_20| () Bool (< g_s1_1 g_s5_5))
(define-fun |def_lprp_21| () Bool (< g_s1_1 g_s6_6))
(define-fun |def_lprp_22| () Bool (< g_s1_1 g_s8_8))
(define-fun |def_lprp_23| () Bool (< g_s1_1 g_s7_7))
(define-fun |def_lprp_24| () Bool (< g_s1_1 g_s9_9))
(define-fun |def_lprp_25| () Bool (< g_s1_1 g_s4_4))
(define-fun |def_lprp_26| () Bool (<= g_s6_6 g_s5_5))
(define-fun |def_lprp_27| () Bool (<= g_s5_5 g_s8_8))
(define-fun |def_lprp_28| () Bool (<= g_s6_6 g_s8_8))
(define-fun |def_lprp_29| () Bool (<= g_s6_6 g_s7_7))
(define-fun |def_lprp_30| () Bool (<= g_s8_8 g_s9_9))
(define-fun |def_lprp_31| () Bool (< g_s7_7 g_s12_12))
(define-fun |def_lprp_32| () Bool (<= g_s6_6 (+ g_s4_4 g_s16_16)))
(define-fun |def_lprp_33| () Bool (<= g_s7_7 (+ g_s6_6 g_s13_13)))
(define-fun |def_lprp_34| () Bool (<= g_s10_10 (+ (+ g_s6_6 g_s13_13) g_s15_15)))
(define-fun |def_lprp_35| () Bool (<= g_s11_11 (+ g_s10_10 g_s14_14)))
(define-fun |def_lprp_36| () Bool (<= (+ (+ g_s13_13 g_s15_15) g_s14_14) g_s17_17))
(define-fun |def_lprp_37| () Bool (<= (+ (+ (+ g_s16_16 g_s13_13) g_s15_15) g_s14_14) g_s18_18))
(define-fun |def_inv_0| () Bool (<= 0 g_s19_19))
(define-fun |def_inv_1| () Bool (<= g_s1_1 g_s19_19))
(define-fun |def_inv_2| () Bool (forall ( (x_22 Int) (x_23 Int) ) (=> (mem2 x_23 x_22 g_s20_20) (and (<= 0 x_23) (mem0 x_22 g_s0_0)))))
(define-fun |def_inv_3| () Bool (forall ( (x_24 Int) ) (=> (exists ( (x_25 Int) ) (mem2 x_24 x_25 g_s20_20)) (and (>= x_24 g_s1_1) (<= x_24 g_s19_19)))))
(define-fun |def_inv_4| () Bool (=> (>= g_s19_19 g_s8_8) (exists ( (l_s21 Int) ) (and  (and (>= l_s21 g_s6_6) (<= l_s21 g_s8_8)) (exists ( (x_26 Int) ) (and  (= x_26 l_s21) (mem2 x_26 g_s2_2 g_s20_20)))))))
(define-fun |def_inv_5| () Bool (not (exists ( (x_27 Int) ) (and  (and (>= x_27 g_s8_8) (<= x_27 g_s9_9)) (mem2 x_27 g_s2_2 g_s20_20)))))
(define-fun |def_inv_6| () Bool (forall ( (l_s22 Int) ) (=> (and  (<= 0 l_s22) (<= g_s6_6 l_s22) (<= l_s22 g_s9_9)) (forall ( (x_28 Int) ) (=> (exists ( (x_29 Int) ) (and  (and (>= x_29 l_s22) (<= x_29 g_s9_9)) (mem2 x_29 x_28 g_s20_20))) (or (exists ( (x_30 Int) ) (and  (= x_30 l_s22) (mem2 x_30 x_28 g_s20_20))) (= x_28 g_s2_2)))))))
(define-fun |def_inv_7| () Bool (forall ( (l_s23 Int) (l_s24 Int) ) (=> (mem2 l_s23 l_s24 g_s20_20) (forall ( (x_31 Int) ) (= (exists ( (x_32 Int) ) (and  (= x_32 l_s23) (mem2 x_32 x_31 g_s20_20))) (= x_31 l_s24))))))
(define-fun |def_ass_0| () Bool (forall ( (x_33 Int) ) (= (exists ( (x_34 Int) ) (and  (= x_34 g_s9_9) (mem2 x_34 x_33 g_s20_20))) false)))
(define-fun |def_sets_0| () Bool (and  (not (forall ( (x_35 Int) ) (= (mem0 x_35 g_s0_0) false))) (and  (forall ( (x_38 Int) ) (=> (mem0 x_38 g_s0_0) true)) (exists ( (x_36 Int) (x_37 (P (C Int Int))) ) (and (and (exists ( (x_39 (P (C Int Int))) ) (and (forall ( (x_40 Int) (x_41 Int) ) (= (mem2 x_41 x_40 x_39) (mem2 x_41 x_40 x_37))) (forall ( (x_42 Int) (x_43 Int) (x_44 Int) ) (=> (and  (mem2 x_42 x_43 x_39) (mem2 x_42 x_44 x_39)) (= x_43 x_44))) (forall ( (x_45 Int) ) (= (and (>= x_45 1) (<= x_45 x_36)) (exists ( (x_46 Int) ) (mem2 x_45 x_46 x_39)))) (forall ( (x_47 Int) ) (=> (exists ( (x_48 Int) ) (mem2 x_48 x_47 x_39)) (mem0 x_47 g_s0_0))))) (forall ( (x_49 Int) ) (=> (mem0 x_49 g_s0_0) (exists ( (x_50 Int) ) (mem2 x_50 x_49 x_37))))) (forall ( (x_51 Int) (x_52 Int) (x_53 Int) ) (=> (and  (mem2 x_52 x_51 x_37) (mem2 x_53 x_51 x_37)) (= x_52 x_53))))))))
; PO group s25
(assert (! |def_lprp_0| :named |lprp0|))
(assert (! |def_lprp_1| :named |lprp1|))
(assert (! |def_lprp_2| :named |lprp2|))
(assert (! |def_lprp_3| :named |lprp3|))
(assert (! |def_lprp_4| :named |lprp4|))
(assert (! |def_lprp_5| :named |lprp5|))
(assert (! |def_lprp_6| :named |lprp6|))
(assert (! |def_lprp_7| :named |lprp7|))
(assert (! |def_lprp_8| :named |lprp8|))
(assert (! |def_lprp_9| :named |lprp9|))
(assert (! |def_lprp_10| :named |lprp10|))
(assert (! |def_lprp_11| :named |lprp11|))
(assert (! |def_lprp_12| :named |lprp12|))
(assert (! |def_lprp_13| :named |lprp13|))
(assert (! |def_lprp_14| :named |lprp14|))
(assert (! |def_lprp_15| :named |lprp15|))
(assert (! |def_lprp_16| :named |lprp16|))
(assert (! |def_lprp_17| :named |lprp17|))
(assert (! |def_lprp_18| :named |lprp18|))
(assert (! |def_lprp_19| :named |lprp19|))
(assert (! |def_lprp_20| :named |lprp20|))
(assert (! |def_lprp_21| :named |lprp21|))
(assert (! |def_lprp_22| :named |lprp22|))
(assert (! |def_lprp_23| :named |lprp23|))
(assert (! |def_lprp_24| :named |lprp24|))
(assert (! |def_lprp_25| :named |lprp25|))
(assert (! |def_lprp_26| :named |lprp26|))
(assert (! |def_lprp_27| :named |lprp27|))
(assert (! |def_lprp_28| :named |lprp28|))
(assert (! |def_lprp_29| :named |lprp29|))
(assert (! |def_lprp_30| :named |lprp30|))
(assert (! |def_lprp_31| :named |lprp31|))
(assert (! |def_lprp_32| :named |lprp32|))
(assert (! |def_lprp_33| :named |lprp33|))
(assert (! |def_lprp_34| :named |lprp34|))
(assert (! |def_lprp_35| :named |lprp35|))
(assert (! |def_lprp_36| :named |lprp36|))
(assert (! |def_lprp_37| :named |lprp37|))
(assert (! |def_inv_0| :named |inv0|))
(assert (! |def_inv_1| :named |inv1|))
(assert (! |def_inv_2| :named |inv2|))
(assert (! |def_inv_3| :named |inv3|))
(assert (! |def_inv_4| :named |inv4|))
(assert (! |def_inv_5| :named |inv5|))
(assert (! |def_inv_6| :named |inv6|))
(assert (! |def_inv_7| :named |inv7|))
; PO 0 in group s25
(assert (! (not (forall ( (x_54 Int) ) (= (exists ( (x_55 Int) ) (and  (= x_55 g_s9_9) (mem2 x_55 x_54 g_s20_20))) false))) :named goal))
(check-sat)
(exit)
